100 783
1 2 1
1 5 1
1 16 1
1 18 1
1 25 1
1 27 1
1 28 1
1 30 1
1 32 1
1 33 1
1 36 1
1 77 1
1 79 1
1 93 1
1 96 1
1 99 1
2 5 1
2 9 1
2 10 1
2 19 1
2 20 1
2 39 1
2 40 1
2 49 1
2 53 1
2 63 1
2 68 1
2 70 1
2 80 1
2 85 1
2 89 1
2 90 1
2 96 1
3 4 1
3 8 1
3 10 1
3 37 1
3 38 1
3 49 1
3 60 1
3 70 1
3 72 1
3 76 1
3 87 1
4 10 1
4 21 1
4 27 1
4 28 1
4 33 1
4 46 1
4 56 1
4 69 1
4 99 1
5 10 1
5 12 1
5 13 1
5 19 1
5 36 1
5 41 1
5 45 1
5 47 1
5 48 1
5 51 1
5 54 1
5 70 1
5 84 1
5 87 1
5 89 1
5 92 1
5 93 1
5 98 1
6 17 1
6 22 1
6 23 1
6 26 1
6 32 1
6 33 1
6 40 1
6 58 1
6 63 1
6 65 1
6 67 1
6 69 1
6 76 1
6 81 1
6 89 1
6 91 1
7 19 1
7 20 1
7 25 1
7 30 1
7 36 1
7 40 1
7 47 1
7 63 1
7 64 1
7 67 1
7 69 1
7 76 1
7 80 1
7 87 1
7 92 1
7 94 1
7 96 1
7 100 1
8 11 1
8 12 1
8 19 1
8 20 1
8 21 1
8 22 1
8 27 1
8 31 1
8 33 1
8 34 1
8 36 1
8 38 1
8 41 1
8 49 1
8 54 1
8 63 1
8 86 1
9 15 1
9 25 1
9 34 1
9 37 1
9 40 1
9 44 1
9 50 1
9 61 1
9 66 1
9 70 1
9 72 1
9 74 1
9 80 1
9 83 1
9 94 1
9 96 1
9 98 1
10 15 1
10 18 1
10 30 1
10 41 1
10 56 1
10 68 1
10 72 1
10 86 1
10 88 1
10 95 1
10 97 1
11 14 1
11 15 1
11 20 1
11 26 1
11 30 1
11 70 1
11 75 1
11 77 1
11 80 1
11 83 1
11 85 1
11 90 1
12 13 1
12 30 1
12 31 1
12 32 1
12 42 1
12 53 1
12 55 1
12 59 1
12 67 1
12 69 1
12 72 1
12 73 1
12 76 1
12 81 1
12 99 1
13 17 1
13 22 1
13 25 1
13 26 1
13 39 1
13 40 1
13 43 1
13 44 1
13 63 1
13 64 1
13 75 1
13 79 1
13 90 1
14 18 1
14 31 1
14 37 1
14 52 1
14 55 1
14 57 1
14 71 1
14 74 1
14 95 1
15 25 1
15 27 1
15 36 1
15 49 1
15 75 1
15 90 1
15 95 1
15 97 1
16 19 1
16 30 1
16 38 1
16 39 1
16 40 1
16 51 1
16 58 1
16 61 1
16 70 1
16 88 1
16 92 1
16 93 1
16 95 1
16 96 1
16 98 1
17 24 1
17 25 1
17 36 1
17 42 1
17 45 1
17 51 1
17 55 1
17 61 1
17 63 1
17 74 1
17 94 1
17 99 1
18 21 1
18 24 1
18 35 1
18 37 1
18 38 1
18 41 1
18 45 1
18 49 1
18 54 1
18 58 1
18 62 1
18 63 1
18 67 1
18 77 1
18 82 1
18 88 1
18 89 1
18 90 1
19 22 1
19 30 1
19 41 1
19 53 1
19 64 1
19 67 1
19 69 1
19 71 1
19 74 1
19 86 1
19 93 1
19 94 1
20 21 1
20 30 1
20 33 1
20 34 1
20 42 1
20 49 1
20 54 1
20 56 1
20 67 1
20 74 1
20 76 1
20 79 1
20 88 1
20 93 1
20 97 1
20 99 1
21 32 1
21 40 1
21 49 1
21 51 1
21 66 1
21 69 1
21 70 1
21 76 1
21 78 1
21 82 1
21 84 1
21 92 1
22 23 1
22 35 1
22 40 1
22 41 1
22 48 1
22 50 1
22 51 1
22 53 1
22 54 1
22 56 1
22 57 1
22 58 1
22 68 1
22 80 1
22 85 1
22 86 1
22 90 1
22 93 1
23 29 1
23 32 1
23 37 1
23 39 1
23 42 1
23 44 1
23 53 1
23 82 1
23 83 1
23 87 1
23 90 1
23 92 1
24 33 1
24 41 1
24 50 1
24 51 1
24 75 1
24 77 1
24 82 1
24 85 1
24 89 1
24 91 1
25 39 1
25 60 1
25 65 1
25 67 1
25 93 1
25 94 1
25 96 1
26 29 1
26 48 1
26 50 1
26 57 1
26 60 1
26 76 1
26 79 1
26 84 1
26 87 1
27 29 1
27 30 1
27 31 1
27 32 1
27 34 1
27 42 1
27 43 1
27 44 1
27 52 1
27 57 1
27 65 1
27 67 1
27 75 1
27 81 1
27 83 1
27 88 1
27 98 1
28 31 1
28 34 1
28 38 1
28 42 1
28 62 1
28 63 1
28 77 1
28 87 1
28 93 1
29 30 1
29 31 1
29 33 1
29 45 1
29 46 1
29 52 1
29 60 1
29 61 1
29 69 1
29 78 1
29 80 1
29 87 1
29 88 1
29 90 1
29 97 1
29 100 1
30 37 1
30 47 1
30 56 1
30 73 1
30 83 1
30 84 1
30 86 1
30 100 1
31 37 1
31 38 1
31 43 1
31 48 1
31 49 1
31 50 1
31 55 1
31 56 1
31 70 1
31 72 1
31 73 1
31 79 1
32 41 1
32 44 1
32 53 1
32 54 1
32 57 1
32 70 1
32 71 1
32 75 1
32 78 1
32 80 1
32 81 1
32 87 1
32 89 1
32 99 1
33 39 1
33 42 1
33 43 1
33 53 1
33 59 1
33 60 1
33 64 1
33 90 1
33 92 1
34 41 1
34 44 1
34 46 1
34 49 1
34 52 1
34 55 1
34 58 1
34 63 1
34 64 1
34 65 1
34 70 1
34 91 1
34 97 1
35 50 1
35 71 1
35 76 1
35 93 1
36 39 1
36 40 1
36 42 1
36 43 1
36 50 1
36 51 1
36 53 1
36 65 1
36 67 1
36 71 1
36 76 1
36 79 1
36 82 1
36 83 1
36 84 1
36 85 1
36 86 1
36 87 1
36 88 1
37 38 1
37 43 1
37 50 1
37 83 1
38 42 1
38 50 1
38 59 1
38 71 1
38 91 1
38 94 1
39 43 1
39 44 1
39 46 1
39 49 1
39 52 1
39 57 1
39 69 1
39 74 1
39 77 1
39 85 1
39 90 1
40 47 1
40 58 1
40 60 1
40 61 1
40 68 1
40 77 1
40 79 1
40 92 1
40 97 1
41 42 1
41 52 1
41 55 1
41 63 1
41 68 1
41 74 1
41 76 1
41 79 1
41 94 1
41 96 1
41 100 1
42 46 1
42 58 1
42 59 1
42 60 1
42 65 1
42 70 1
42 72 1
42 79 1
42 81 1
42 82 1
42 84 1
42 88 1
42 96 1
43 45 1
43 47 1
43 49 1
43 50 1
43 51 1
43 54 1
43 56 1
43 58 1
43 61 1
43 85 1
43 87 1
43 91 1
44 47 1
44 55 1
44 64 1
44 70 1
44 86 1
44 90 1
44 92 1
44 96 1
45 70 1
45 79 1
45 88 1
45 97 1
45 99 1
46 51 1
46 53 1
46 55 1
46 71 1
46 79 1
46 85 1
46 98 1
47 49 1
47 51 1
47 66 1
47 70 1
47 75 1
47 77 1
47 84 1
47 87 1
47 94 1
48 51 1
48 54 1
48 61 1
48 65 1
48 67 1
48 70 1
48 75 1
48 80 1
48 97 1
48 99 1
49 53 1
49 57 1
49 61 1
49 66 1
49 68 1
49 72 1
49 74 1
49 82 1
49 89 1
49 92 1
49 99 1
50 51 1
50 53 1
50 56 1
50 60 1
50 70 1
50 85 1
50 94 1
50 99 1
51 55 1
51 63 1
51 64 1
51 67 1
51 75 1
51 76 1
51 80 1
51 82 1
51 83 1
52 54 1
52 60 1
52 69 1
52 75 1
52 80 1
52 81 1
52 84 1
52 93 1
52 94 1
52 97 1
53 56 1
53 71 1
53 72 1
53 75 1
53 79 1
53 81 1
53 83 1
53 98 1
54 57 1
54 60 1
54 65 1
54 66 1
54 67 1
54 70 1
54 73 1
54 80 1
54 84 1
54 85 1
54 92 1
54 94 1
55 56 1
55 58 1
55 59 1
55 62 1
55 74 1
55 77 1
55 82 1
55 91 1
55 97 1
56 68 1
56 74 1
56 79 1
56 80 1
56 81 1
56 92 1
56 95 1
56 96 1
56 98 1
57 58 1
57 80 1
57 85 1
57 96 1
58 61 1
58 63 1
58 84 1
58 85 1
58 90 1
58 96 1
59 62 1
59 68 1
59 71 1
59 72 1
59 76 1
59 91 1
59 94 1
60 83 1
60 88 1
61 74 1
61 82 1
61 86 1
61 91 1
62 75 1
62 82 1
62 84 1
62 87 1
62 92 1
63 65 1
63 73 1
63 86 1
63 88 1
63 90 1
63 92 1
63 96 1
63 97 1
63 98 1
63 99 1
64 71 1
64 80 1
64 84 1
64 92 1
64 95 1
65 78 1
65 81 1
65 90 1
65 98 1
65 99 1
66 71 1
66 74 1
66 80 1
66 88 1
66 97 1
67 74 1
67 77 1
67 83 1
67 88 1
67 89 1
67 99 1
68 69 1
68 75 1
68 77 1
68 84 1
68 92 1
68 93 1
68 94 1
69 74 1
69 79 1
69 86 1
69 88 1
69 92 1
70 72 1
70 78 1
70 80 1
70 83 1
70 88 1
70 94 1
70 100 1
71 78 1
71 96 1
71 100 1
72 75 1
72 82 1
72 85 1
72 95 1
73 74 1
73 92 1
73 93 1
73 95 1
74 75 1
74 77 1
74 79 1
74 94 1
74 98 1
75 80 1
75 86 1
75 87 1
75 92 1
75 96 1
75 100 1
76 79 1
76 89 1
76 90 1
76 92 1
76 94 1
77 90 1
78 84 1
78 87 1
79 94 1
81 83 1
81 88 1
81 95 1
81 96 1
82 91 1
82 94 1
83 98 1
85 86 1
86 87 1
86 93 1
86 98 1
86 100 1
87 92 1
88 97 1
88 99 1
89 92 1
89 94 1
89 96 1
89 100 1
90 95 1
91 93 1
92 97 1
93 95 1
95 98 1
